(set-logic QF_S)
(declare-fun var0 () String)
(assert (str.in.re var0 (re.++ (re.* (re.union (str.to.re "0") (str.to.re "111"))) (re.++ (re.+ (re.* (str.to.re "22"))) (re.++ (re.union (re.+ (str.to.re "333")) (re.+ (str.to.re "4"))) (re.++ (re.+ (re.* (str.to.re "5"))) (re.++ (re.union (re.+ (str.to.re "6")) (re.+ (str.to.re "77"))) (re.++ (re.+ (re.union (str.to.re "888") (str.to.re "99"))) (re.++ (re.* (re.* (str.to.re "aa"))) (re.++ (re.+ (re.+ (str.to.re "b"))) (re.++ (re.+ (re.union (str.to.re "cc") (str.to.re "ddd"))) (re.++ (re.union (re.+ (str.to.re "eee")) (re.+ (str.to.re "fff"))) (re.++ (re.union (re.+ (str.to.re "g")) (re.+ (str.to.re "hhh"))) (re.++ (re.+ (re.union (str.to.re "i") (str.to.re "jjj"))) (re.++ (re.+ (re.* (str.to.re "k"))) (re.++ (re.* (re.+ (str.to.re "l"))) (re.++ (re.* (re.* (str.to.re "mm"))) (re.++ (re.union (re.+ (str.to.re "nn")) (re.+ (str.to.re "ooo"))) (re.++ (re.+ (re.+ (str.to.re "p"))) (re.++ (re.union (re.* (str.to.re "qq")) (re.* (str.to.re "rrr"))) (re.++ (re.* (re.+ (str.to.re "s"))) (re.++ (re.union (re.* (str.to.re "t")) (re.* (str.to.re "uuu"))) (re.++ (re.* (re.+ (str.to.re "v"))) (re.++ (re.* (re.* (str.to.re "www"))) (re.++ (re.* (re.+ (str.to.re "xx"))) (re.++ (re.union (re.union (str.to.re "yy") (str.to.re "z")) (re.union (str.to.re "A") (str.to.re "B"))) (re.++ (re.* (re.+ (str.to.re "CC"))) (re.++ (re.* (re.* (str.to.re "DDD"))) (re.++ (re.+ (re.+ (str.to.re "EEE"))) (re.++ (re.+ (re.+ (str.to.re "F"))) (re.++ (re.union (re.union (str.to.re "G") (str.to.re "H")) (re.union (str.to.re "II") (str.to.re "JJ"))) (re.++ (re.* (re.union (str.to.re "KKK") (str.to.re "L"))) (re.union (re.union (str.to.re "MM") (str.to.re "NN")) (re.union (str.to.re "O") (str.to.re "PPP")))))))))))))))))))))))))))))))))))
(assert (not (str.in.re var0 (re.++ (re.* (re.* (str.to.re "0"))) (re.++ (re.+ (re.* (str.to.re "1"))) (re.++ (re.union (re.* (str.to.re "222")) (re.* (str.to.re "333"))) (re.++ (re.* (re.+ (str.to.re "4"))) (re.++ (re.* (re.* (str.to.re "55"))) (re.++ (re.union (re.+ (str.to.re "66")) (re.+ (str.to.re "77"))) (re.++ (re.+ (re.* (str.to.re "888"))) (re.++ (re.* (re.* (str.to.re "9"))) (re.++ (re.union (re.+ (str.to.re "aaa")) (re.+ (str.to.re "bbb"))) (re.++ (re.+ (re.union (str.to.re "ccc") (str.to.re "d"))) (re.++ (re.* (re.* (str.to.re "ee"))) (re.++ (re.union (re.* (str.to.re "ff")) (re.* (str.to.re "ggg"))) (re.++ (re.union (re.+ (str.to.re "h")) (re.+ (str.to.re "ii"))) (re.++ (re.* (re.union (str.to.re "j") (str.to.re "k"))) (re.++ (re.* (re.+ (str.to.re "l"))) (re.++ (re.+ (re.* (str.to.re "mm"))) (re.++ (re.+ (re.* (str.to.re "n"))) (re.++ (re.union (re.+ (str.to.re "oo")) (re.+ (str.to.re "ppp"))) (re.++ (re.union (re.+ (str.to.re "q")) (re.+ (str.to.re "rrr"))) (re.++ (re.* (re.+ (str.to.re "s"))) (re.++ (re.+ (re.+ (str.to.re "ttt"))) (re.++ (re.+ (re.union (str.to.re "uuu") (str.to.re "vv"))) (re.++ (re.* (re.* (str.to.re "w"))) (re.++ (re.+ (re.* (str.to.re "xxx"))) (re.++ (re.union (re.union (str.to.re "yyy") (str.to.re "zz")) (re.union (str.to.re "AA") (str.to.re "BBB"))) (re.++ (re.* (re.* (str.to.re "C"))) (re.++ (re.+ (re.union (str.to.re "DDD") (str.to.re "EEE"))) (re.++ (re.* (re.+ (str.to.re "FF"))) (re.++ (re.* (re.* (str.to.re "GG"))) (re.++ (re.union (re.* (str.to.re "HHH")) (re.* (str.to.re "I"))) (re.+ (re.* (str.to.re "JJ"))))))))))))))))))))))))))))))))))))
(check-sat)